
  17    4
  10   10   10   10

   0   0   0   0   0   6 2 3 4 5 7 10 
   1  10  10  10  10   4 16 15 8 6 
   8  10  10  10  10   4 16 15 11 8 
   9  10  10  10  10   4 16 15 11 9 
   5  10  10  10  10   2 16 6 
   9  10  10  10  10   2 11 9 
   1  10  10  10  10   2 15 9 
   9  10  10  10  10   1 9 
   7  10  10  10  10   3 14 13 12 
   7  10  10  10  10   3 14 13 12 
   1  10  10  10  10   1 12 
   7  10  10  10  10   1 17
   4  10  10  10  10   1 17
   2  10  10  10  10   1 17
   2  10  10  10  10   1 17
   4  10  10  10  10   1 17
   0   0   0   0   0   0 
